; benchmark generated from python API
(set-info :status unknown)
(declare-fun S_4 () Real)
(declare-fun S_2 () Real)
(declare-fun C () Real)
(declare-fun S_3 () Real)
(declare-fun S_1 () Real)
(declare-fun A_0 () Real)
(declare-fun S_0 () Real)
(declare-fun L_0 () Real)
(declare-fun L0 () Real)
(declare-fun B () Real)
(declare-fun A_1 () Real)
(declare-fun L_1 () Real)
(declare-fun A_3 () Real)
(declare-fun L_2 () Real)
(declare-fun A_2 () Real)
(declare-fun L_3 () Real)
(declare-fun A_4 () Real)
(assert
 (let (($x37 (>= L0 0.0)))
 (let (($x773 (>= C 5.0)))
 (let (($x536 (>= B 5.0)))
 (let (($x2902 (<= (+ A_1 (* (- 1.0) S_2) (* (- 1.0) L_0)) 0.0)))
 (let (($x8209 (<= (+ (* 2.0 C) A_1 (* (- 1.0) L_0) (* (- 1.0) S_4)) 0.0)))
 (let (($x4316 (>= S_4 (+ A_3 (* (- 1.0) L_1)))))
 (let (($x813 (not (<= L_2 L_1))))
 (let (($x12860 (or $x813 $x4316 $x8209 (<= (+ (* 3.0 C) S_0 (* (- 1.0) S_4)) 0.0))))
 (let (($x12497 (or (<= (+ C A_1 (* (- 1.0) L_0) (* (- 1.0) S_3)) 0.0) (<= (+ (* 2.0 C) (* (- 1.0) S_3) S_0) 0.0))))
 (let (($x12691 (or $x813 $x4316 (<= (+ (* 2.0 C) (* (- 1.0) S_4) S_1) 0.0))))
 (let (($x64 (= L_2 L_1)))
 (let (($x8200 (or $x64 (<= S_4 (+ A_2 (* (- 1.0) L_2) (* (- 1.0) B) (* 2.0 C))))))
 (let (($x4399 (>= S_4 (+ A_3 (* (- 1.0) L_2)))))
 (let (($x8466 (<= 0.0 (+ C (* (- 1.0) A_1) L_0 S_0))))
 (let (($x8467 (not $x8466)))
 (let ((?x230 (* (- 1.0) C)))
 (let ((?x472 (* (- 1.0) L_2)))
 (let ((?x533 (* (- 1.0) B)))
 (let ((?x458 (+ ?x533 ?x472 A_2 ?x230)))
 (let ((?x577 (* (- 1.0) L_0)))
 (let ((?x852 (+ A_1 ?x577)))
 (let (($x8376 (<= ?x852 ?x458)))
 (let (($x4673 (= L_2 L_0)))
 (let ((?x505 (* (- 1.0) A_1)))
 (let ((?x379 (* (- 1.0) L_3)))
 (let ((?x1038 (* (- 2.0) C)))
 (let (($x12525 (or (= (+ ?x1038 ?x533 ?x379 ?x505 A_3 L_0) 0.0) (not (<= ?x852 (+ ?x533 ?x379 A_3 ?x1038))))))
 (let ((?x8065 (+ ?x533 ?x379 A_3 ?x1038)))
 (let (($x8447 (<= ?x852 ?x8065)))
 (let (($x2525 (= L_3 L_0)))
 (let (($x12461 (or $x2525 (not (<= (+ A_2 ?x577 L_3 (* (- 1.0) A_3) C) 0.0)) $x8447 $x8467)))
 (let (($x1771 (not (= L_0 L_2))))
 (let (($x12659 (or $x1771 $x2525 (<= (+ A_1 ?x577 L_3 (* (- 1.0) A_3) (* 2.0 C)) 0.0))))
 (let (($x8100 (<= (+ A_2 ?x577 L_3 (* (- 1.0) A_3) C) 0.0)))
 (let (($x2452 (= L_3 L_1)))
 (let (($x1071 (not (= L_1 L_2))))
 (let (($x810 (not (<= L_1 L_0))))
 (let (($x54 (= L_1 L_0)))
 (let (($x1315 (not (= L_2 L_3))))
 (let (($x814 (<= L_3 L_2)))
 (let (($x12895 (or $x54 $x814 (= (+ A_3 ?x379) (+ A_1 (* (- 1.0) L_1) (* 2.0 C))))))
 (let (($x7559 (or $x64 $x810 (<= (+ A_1 ?x577 L_2 (* (- 1.0) A_2) C) 0.0))))
 (let (($x117 (>= S_3 S_2)))
 (let (($x36 (>= L_0 L0)))
 (let (($x111 (>= S_1 S_0)))
 (let (($x114 (>= S_2 S_1)))
 (let (($x122 (>= A_1 A_0)))
 (let (($x124 (>= A_3 A_2)))
 (let (($x125 (>= A_4 A_3)))
 (and (<= (+ A_2 ?x472) S_4) (<= (+ A_1 (* (- 1.0) L_1)) S_3) (not (<= (+ A_2 ?x472) S_3)) $x125 $x124 $x122 $x114 $x111 $x36 $x117 (>= S_4 (+ A_3 ?x379 ?x533)) (>= S_3 (+ A_2 ?x472 ?x533)) (or $x54 (<= S_1 (+ A_1 (* (- 1.0) L_1) ?x533))) (or $x64 (<= S_2 (+ A_2 ?x472 ?x533))) (<= (+ ?x533 (* (- 1.0) L_1) A_1 ?x230) (+ A_0 ?x577)) (>= S_0 (+ ?x533 (* (- 1.0) L_1) A_1 ?x1038)) (or $x54 $x64 (= (+ A_2 ?x472) (+ A_1 (* (- 1.0) L_1) C))) (or $x64 (= L_3 L_2) (= (+ A_3 ?x379) (+ A_2 ?x472 C))) (or $x64 $x813) (or (= L_3 L_2) (<= S_3 (+ A_3 ?x379 ?x533))) (>= S_2 (+ A_1 (* (- 1.0) L_1) ?x533)) (or $x54 (<= S_0 (+ ?x533 (* (- 1.0) L_1) A_1 ?x230))) (or $x64 (<= S_1 ?x458)) (or $x64 (<= S_3 (+ A_2 ?x472 ?x533 C))) $x7559 (or (= L_3 L_2) (not $x814)) (or $x54 $x810) (or (= L_3 L_2) (<= S_4 (+ A_3 ?x379 ?x533 C))) (or $x54 (<= S_2 (+ A_1 (* (- 1.0) L_1) ?x533 C))) (>= S_1 (+ ?x533 (* (- 1.0) L_1) A_1 ?x230)) (>= S_3 (+ A_1 (* (- 1.0) L_1) ?x533 C)) $x12895 (or $x64 (<= (+ A_3 (* (- 1.0) A_2) ?x230) 0.0) $x1315) (or (= L_3 L_2) (<= S_1 ?x8065)) (<= (+ ?x505 L_0 S_1) 0.0) (or $x54 $x813 $x1315 (<= (+ A_3 ?x505 ?x1038) 0.0)) (<= S_4 (+ A_4 ?x379)) (or $x54 (<= S_4 (+ A_1 (* (- 1.0) L_1) ?x533 (* 3.0 C)))) (or $x54 $x1071 (<= (+ A_2 ?x505 ?x230) 0.0)) (or $x64 (<= S_0 (+ ?x533 ?x472 A_2 ?x1038)) $x8466) (<= (+ ?x533 ?x472 A_2 ?x1038) (+ A_0 ?x577)) (or $x4399 (>= S_4 (+ A_1 (* (- 1.0) L_1) ?x533 (* 2.0 C)))) (or $x54 (<= S_3 (+ A_1 (* (- 1.0) L_1) ?x533 (* 2.0 C)))) (>= S_0 (+ ?x533 ?x472 A_2 (* (- 3.0) C))) (>= S_2 ?x458) (>= S_1 (+ ?x533 ?x472 A_2 ?x1038)) (or (not $x8376) (= (+ ?x230 A_2 ?x472 ?x533 ?x505 L_0) 0.0)) (or $x1771 $x2525 (<= S_2 (+ ?x533 ?x379 A_3 ?x230))) (>= S_3 (+ ?x533 ?x379 A_3 ?x230)) (>= S_1 (+ ?x533 ?x379 A_3 (* (- 3.0) C))) (or $x810 $x1071 $x2452 $x8100) (<= (+ ?x533 ?x379 A_3 (* (- 3.0) C)) (+ A_0 ?x577)) (>= S_2 ?x8065) $x12659 (or $x1771 $x2525 (<= S_0 (+ ?x533 ?x379 A_3 (* (- 3.0) C))) $x8466) $x12461 (>= S_0 (+ ?x533 ?x379 A_3 (* (- 4.0) C))) $x12525 (<= (+ ?x230 L_0 S_1 (* (- 1.0) A_0)) 0.0) (<= (+ (* (- 4.0) C) S_4 (* (- 1.0) S_1)) 0.0) (<= (+ ?x1038 (* (- 1.0) S_0) S_1) 0.0) (<= S_4 (+ A_3 ?x472 C)) (<= (+ (* (- 5.0) C) (* (- 1.0) S_0) S_4) 0.0) (<= (+ ?x1038 L_0 S_2 (* (- 1.0) A_0)) 0.0) (<= (+ ?x230 ?x505 S_2 L_0) 0.0) (<= (+ ?x1038 ?x505 L_0 S_3) 0.0) (<= (+ (* (- 3.0) C) ?x505 L_0 S_4) 0.0) (or $x4673 $x8376 $x8467) (or $x4399 (>= S_4 (+ A_2 ?x472 ?x533 C))) $x8200 (or $x813 $x4316 (<= (+ C S_2 (* (- 1.0) S_4)) 0.0)) $x12691 (<= (+ (* (- 3.0) C) L_0 S_3 (* (- 1.0) A_0)) 0.0) $x12497 (<= (+ ?x1038 S_2 (* (- 1.0) S_1)) 0.0) (<= (+ (* (- 4.0) C) S_3 (* (- 1.0) S_0)) 0.0) (<= (+ (* (- 3.0) C) S_3 (* (- 1.0) S_1)) 0.0) (<= (+ (* (- 3.0) C) S_2 (* (- 1.0) S_0)) 0.0) (<= (+ (* (- 4.0) C) L_0 S_4 (* (- 1.0) A_0)) 0.0) $x12860 (or $x2902 (<= (+ C (* (- 1.0) S_2) S_0) 0.0)) $x536 $x773 $x37 (<= (+ L_0 S_0 (* (- 1.0) A_0)) 0.0) (<= (+ C (* (- 1.0) S_3) S_1) 0.0) (<= (+ ?x1038 (* (- 1.0) S_2) S_3) 0.0) (<= (+ ?x1038 (* (- 1.0) S_3) S_4) 0.0) (<= (+ (* (- 3.0) C) (* (- 1.0) S_2) S_4) 0.0))))))))))))))))))))))))))))))))))))))))))))))))))))
(check-sat)
